[1, 2, 3, 4, 5, 6, 7, 8, 9, 10, 11, 12, 13, 14, 15, 16, 17, 18, 19, 20, 21, 22, 23, 24, 25, 26, 27, 28, 29, 30, 53, 37, 35, 36, 35, 35, 36, 38, 39, 41, 41, 42, 46, 44, 45, 45, 45, 44, 35, 41, 44, 49, 53, 57, 56, 56, 57, 59, 58, 60, 61, 61, 65, 63, 64, 66, 91, 64, 54, 72, 74, 75, 74, 74, 75, 77, 77, 78, 80, 79, 81, 82, 83, 84, 86, 85, 88, 87, 83, 78, 95, 95, 92, 93, 98, 97, 96, 96, 94, 101, 101, 103, 103, 105, 106, 107, 104, 115, 111, 110, 112, 111, 113, 116, 116, 115, 115, 114, 119, 120, 122, 124, 125, 123, 124, 126, 126, 128, 131, 130, 129, 128, 132, 131, 131, 136, 140, 138, 139, 139, 137, 138, 141, 144, 145, 146, 146, 148, 152, 151, 152, 150, 153, 154, 155, 155, 157, 159, 158, 160, 161, 162, 166, 166, 165, 166, 167, 168, 169, 172, 171, 170, 173, 174, 174, 180, 178, 178, 178, 179, 181, 190, 191, 186, 186, 187, 187, 190, 191, 192, 193, 195, 194, 191, 192, 196, 196, 199, 201, 200, 202, 202, 214, 207, 208, 207, 206, 206, 209, 210, 212, 212, 214, 214, 215, 216, 217, 217, 219, 220, 221, 222, 224, 225, 225, 228, 226, 227, 238, 232, 232, 233, 234, 235, 237, 238, 237, 238, 239, 241, 240, 240, 247, 244, 245, 246, 247, 248, 252, 254, 252, 252, 253, 254, 254, 256, 257, 258, 259, 259, 260, 261, 263, 263, 264, 267, 268, 266, 272, 271, 273, 272, 271, 279, 277, 276, 274, 275, 278, 72]
[1, 2, 3, 4, 5, 6, 7, 8, 9, 10, 11, 12, 13, 14, 15, 16, 17, 18, 19, 20, 21, 22, 23, 24, 25, 26, 27, 28, 29, 65, 106, 220, 221, 257]
